NAME : 15.76647.tour
COMMENT : Length = 76647
COMMENT : Found by LKH-3 [Keld Helsgaun] Thu Jun 19 18:16:22 2025
TYPE : TOUR
DIMENSION : 100
TOUR_SECTION
1
50
52
54
30
23
51
91
29
40
57
79
47
55
76
49
46
63
4
60
75
33
5
78
68
94
37
19
18
98
72
58
17
39
77
90
87
9
100
56
86
82
81
89
15
83
27
34
45
97
70
41
69
85
16
6
12
44
62
21
25
43
48
88
95
36
65
32
71
28
8
99
31
2
7
24
80
59
11
67
73
42
53
13
96
61
20
26
64
74
14
38
10
66
92
22
3
35
84
93
-1
EOF
